p edge 100 1464
e 2 1
e 4 1
e 5 1
e 8 1
e 10 1
e 21 1
e 27 1
e 28 1
e 30 1
e 31 1
e 37 1
e 38 1
e 39 1
e 40 1
e 41 1
e 44 1
e 46 1
e 58 1
e 60 1
e 63 1
e 71 1
e 72 1
e 73 1
e 76 1
e 80 1
e 81 1
e 82 1
e 86 1
e 89 1
e 90 1
e 93 1
e 11 2
e 20 2
e 21 2
e 22 2
e 25 2
e 27 2
e 32 2
e 34 2
e 35 2
e 38 2
e 40 2
e 46 2
e 47 2
e 48 2
e 52 2
e 60 2
e 61 2
e 69 2
e 74 2
e 77 2
e 82 2
e 88 2
e 94 2
e 100 2
e 4 3
e 6 3
e 13 3
e 18 3
e 25 3
e 30 3
e 31 3
e 32 3
e 33 3
e 34 3
e 38 3
e 39 3
e 41 3
e 46 3
e 47 3
e 54 3
e 55 3
e 57 3
e 63 3
e 64 3
e 65 3
e 67 3
e 69 3
e 74 3
e 75 3
e 79 3
e 84 3
e 87 3
e 88 3
e 91 3
e 94 3
e 95 3
e 97 3
e 5 4
e 8 4
e 12 4
e 16 4
e 17 4
e 24 4
e 28 4
e 30 4
e 32 4
e 37 4
e 40 4
e 41 4
e 43 4
e 44 4
e 49 4
e 50 4
e 53 4
e 54 4
e 59 4
e 62 4
e 68 4
e 71 4
e 73 4
e 75 4
e 77 4
e 79 4
e 81 4
e 82 4
e 83 4
e 86 4
e 88 4
e 91 4
e 96 4
e 97 4
e 98 4
e 99 4
e 9 5
e 10 5
e 11 5
e 14 5
e 15 5
e 17 5
e 27 5
e 31 5
e 40 5
e 42 5
e 49 5
e 50 5
e 54 5
e 69 5
e 72 5
e 74 5
e 75 5
e 76 5
e 81 5
e 84 5
e 86 5
e 94 5
e 97 5
e 98 5
e 8 6
e 13 6
e 14 6
e 25 6
e 27 6
e 34 6
e 35 6
e 36 6
e 43 6
e 49 6
e 50 6
e 51 6
e 55 6
e 56 6
e 58 6
e 59 6
e 60 6
e 66 6
e 70 6
e 71 6
e 72 6
e 74 6
e 76 6
e 78 6
e 81 6
e 82 6
e 89 6
e 90 6
e 92 6
e 98 6
e 99 6
e 9 7
e 14 7
e 17 7
e 18 7
e 21 7
e 29 7
e 32 7
e 33 7
e 36 7
e 37 7
e 40 7
e 46 7
e 48 7
e 53 7
e 54 7
e 56 7
e 58 7
e 63 7
e 65 7
e 67 7
e 68 7
e 69 7
e 83 7
e 86 7
e 95 7
e 98 7
e 9 8
e 13 8
e 16 8
e 18 8
e 22 8
e 23 8
e 26 8
e 28 8
e 35 8
e 36 8
e 38 8
e 39 8
e 40 8
e 41 8
e 52 8
e 57 8
e 58 8
e 60 8
e 61 8
e 62 8
e 66 8
e 67 8
e 70 8
e 71 8
e 73 8
e 83 8
e 89 8
e 94 8
e 97 8
e 99 8
e 10 9
e 17 9
e 20 9
e 22 9
e 28 9
e 30 9
e 35 9
e 40 9
e 41 9
e 48 9
e 50 9
e 63 9
e 66 9
e 69 9
e 71 9
e 73 9
e 74 9
e 81 9
e 82 9
e 85 9
e 91 9
e 94 9
e 12 10
e 13 10
e 18 10
e 20 10
e 23 10
e 27 10
e 28 10
e 29 10
e 30 10
e 32 10
e 38 10
e 42 10
e 44 10
e 51 10
e 53 10
e 55 10
e 59 10
e 60 10
e 71 10
e 74 10
e 82 10
e 84 10
e 87 10
e 91 10
e 92 10
e 94 10
e 99 10
e 13 11
e 20 11
e 21 11
e 24 11
e 28 11
e 30 11
e 34 11
e 35 11
e 37 11
e 45 11
e 48 11
e 50 11
e 61 11
e 63 11
e 65 11
e 67 11
e 70 11
e 85 11
e 93 11
e 96 11
e 97 11
e 99 11
e 14 12
e 15 12
e 23 12
e 29 12
e 30 12
e 31 12
e 39 12
e 43 12
e 46 12
e 49 12
e 54 12
e 55 12
e 57 12
e 60 12
e 61 12
e 64 12
e 65 12
e 67 12
e 69 12
e 75 12
e 86 12
e 87 12
e 91 12
e 92 12
e 93 12
e 94 12
e 97 12
e 99 12
e 100 12
e 14 13
e 19 13
e 20 13
e 25 13
e 28 13
e 36 13
e 38 13
e 40 13
e 41 13
e 46 13
e 47 13
e 48 13
e 50 13
e 59 13
e 65 13
e 71 13
e 72 13
e 73 13
e 76 13
e 77 13
e 78 13
e 90 13
e 91 13
e 95 13
e 96 13
e 98 13
e 99 13
e 19 14
e 27 14
e 29 14
e 30 14
e 33 14
e 35 14
e 36 14
e 38 14
e 40 14
e 45 14
e 47 14
e 53 14
e 57 14
e 68 14
e 69 14
e 70 14
e 75 14
e 76 14
e 81 14
e 82 14
e 86 14
e 90 14
e 96 14
e 97 14
e 18 15
e 20 15
e 21 15
e 22 15
e 23 15
e 24 15
e 27 15
e 31 15
e 34 15
e 37 15
e 39 15
e 45 15
e 48 15
e 62 15
e 64 15
e 69 15
e 72 15
e 74 15
e 75 15
e 77 15
e 78 15
e 79 15
e 80 15
e 97 15
e 98 15
e 18 16
e 22 16
e 25 16
e 26 16
e 27 16
e 34 16
e 35 16
e 37 16
e 39 16
e 40 16
e 42 16
e 57 16
e 58 16
e 60 16
e 66 16
e 68 16
e 69 16
e 73 16
e 77 16
e 86 16
e 92 16
e 100 16
e 22 17
e 34 17
e 39 17
e 42 17
e 47 17
e 49 17
e 52 17
e 54 17
e 55 17
e 65 17
e 71 17
e 79 17
e 82 17
e 84 17
e 85 17
e 86 17
e 89 17
e 94 17
e 96 17
e 99 17
e 100 17
e 19 18
e 23 18
e 27 18
e 31 18
e 34 18
e 42 18
e 47 18
e 53 18
e 57 18
e 64 18
e 66 18
e 69 18
e 75 18
e 76 18
e 77 18
e 78 18
e 80 18
e 82 18
e 83 18
e 84 18
e 92 18
e 93 18
e 94 18
e 95 18
e 96 18
e 99 18
e 100 18
e 20 19
e 26 19
e 28 19
e 29 19
e 31 19
e 33 19
e 34 19
e 35 19
e 36 19
e 38 19
e 52 19
e 61 19
e 68 19
e 71 19
e 72 19
e 77 19
e 84 19
e 86 19
e 90 19
e 92 19
e 93 19
e 94 19
e 97 19
e 99 19
e 21 20
e 23 20
e 30 20
e 32 20
e 35 20
e 36 20
e 40 20
e 43 20
e 46 20
e 51 20
e 54 20
e 57 20
e 62 20
e 63 20
e 64 20
e 65 20
e 67 20
e 72 20
e 76 20
e 77 20
e 80 20
e 85 20
e 91 20
e 95 20
e 97 20
e 99 20
e 22 21
e 24 21
e 26 21
e 34 21
e 35 21
e 36 21
e 41 21
e 44 21
e 49 21
e 50 21
e 55 21
e 56 21
e 65 21
e 66 21
e 72 21
e 73 21
e 76 21
e 84 21
e 86 21
e 93 21
e 97 21
e 24 22
e 25 22
e 29 22
e 32 22
e 41 22
e 43 22
e 44 22
e 46 22
e 47 22
e 51 22
e 52 22
e 55 22
e 58 22
e 59 22
e 60 22
e 62 22
e 64 22
e 66 22
e 75 22
e 77 22
e 79 22
e 82 22
e 92 22
e 94 22
e 96 22
e 99 22
e 29 23
e 30 23
e 34 23
e 37 23
e 38 23
e 42 23
e 43 23
e 44 23
e 48 23
e 53 23
e 64 23
e 65 23
e 66 23
e 68 23
e 77 23
e 84 23
e 87 23
e 89 23
e 90 23
e 92 23
e 93 23
e 94 23
e 95 23
e 98 23
e 25 24
e 27 24
e 29 24
e 32 24
e 33 24
e 35 24
e 37 24
e 40 24
e 48 24
e 50 24
e 51 24
e 55 24
e 57 24
e 58 24
e 59 24
e 60 24
e 62 24
e 64 24
e 67 24
e 68 24
e 78 24
e 79 24
e 84 24
e 85 24
e 90 24
e 92 24
e 94 24
e 98 24
e 99 24
e 100 24
e 30 25
e 31 25
e 32 25
e 33 25
e 37 25
e 41 25
e 44 25
e 48 25
e 49 25
e 52 25
e 55 25
e 57 25
e 63 25
e 64 25
e 67 25
e 70 25
e 71 25
e 75 25
e 76 25
e 81 25
e 82 25
e 86 25
e 87 25
e 90 25
e 92 25
e 93 25
e 100 25
e 29 26
e 32 26
e 33 26
e 35 26
e 37 26
e 45 26
e 46 26
e 49 26
e 56 26
e 64 26
e 66 26
e 67 26
e 75 26
e 78 26
e 86 26
e 88 26
e 91 26
e 93 26
e 95 26
e 96 26
e 28 27
e 29 27
e 35 27
e 38 27
e 40 27
e 42 27
e 47 27
e 52 27
e 55 27
e 56 27
e 60 27
e 64 27
e 70 27
e 74 27
e 78 27
e 86 27
e 89 27
e 91 27
e 94 27
e 96 27
e 29 28
e 33 28
e 38 28
e 40 28
e 42 28
e 43 28
e 44 28
e 50 28
e 51 28
e 55 28
e 56 28
e 59 28
e 60 28
e 68 28
e 81 28
e 82 28
e 83 28
e 85 28
e 87 28
e 88 28
e 89 28
e 95 28
e 97 28
e 34 29
e 37 29
e 39 29
e 44 29
e 52 29
e 53 29
e 56 29
e 58 29
e 69 29
e 81 29
e 82 29
e 88 29
e 89 29
e 92 29
e 96 29
e 32 30
e 37 30
e 40 30
e 66 30
e 67 30
e 69 30
e 72 30
e 74 30
e 75 30
e 82 30
e 85 30
e 86 30
e 93 30
e 94 30
e 95 30
e 32 31
e 33 31
e 39 31
e 45 31
e 47 31
e 52 31
e 53 31
e 54 31
e 56 31
e 57 31
e 59 31
e 72 31
e 76 31
e 77 31
e 82 31
e 85 31
e 86 31
e 89 31
e 92 31
e 95 31
e 96 31
e 97 31
e 99 31
e 44 32
e 49 32
e 52 32
e 53 32
e 54 32
e 56 32
e 60 32
e 63 32
e 69 32
e 71 32
e 75 32
e 80 32
e 87 32
e 91 32
e 92 32
e 99 32
e 37 33
e 40 33
e 43 33
e 44 33
e 48 33
e 58 33
e 59 33
e 60 33
e 62 33
e 63 33
e 66 33
e 67 33
e 68 33
e 70 33
e 76 33
e 77 33
e 80 33
e 83 33
e 84 33
e 90 33
e 91 33
e 92 33
e 35 34
e 38 34
e 40 34
e 42 34
e 45 34
e 51 34
e 53 34
e 57 34
e 58 34
e 59 34
e 60 34
e 62 34
e 64 34
e 66 34
e 68 34
e 70 34
e 73 34
e 81 34
e 82 34
e 85 34
e 95 34
e 97 34
e 43 35
e 47 35
e 48 35
e 49 35
e 54 35
e 64 35
e 71 35
e 72 35
e 73 35
e 75 35
e 78 35
e 81 35
e 88 35
e 92 35
e 97 35
e 37 36
e 42 36
e 43 36
e 45 36
e 46 36
e 47 36
e 50 36
e 51 36
e 59 36
e 67 36
e 68 36
e 70 36
e 73 36
e 77 36
e 84 36
e 91 36
e 92 36
e 41 37
e 46 37
e 50 37
e 57 37
e 63 37
e 64 37
e 72 37
e 74 37
e 77 37
e 80 37
e 82 37
e 85 37
e 86 37
e 89 37
e 94 37
e 96 37
e 97 37
e 98 37
e 39 38
e 41 38
e 42 38
e 44 38
e 46 38
e 56 38
e 60 38
e 65 38
e 67 38
e 75 38
e 77 38
e 79 38
e 80 38
e 82 38
e 83 38
e 84 38
e 93 38
e 40 39
e 41 39
e 50 39
e 51 39
e 55 39
e 57 39
e 60 39
e 66 39
e 69 39
e 70 39
e 71 39
e 72 39
e 74 39
e 76 39
e 83 39
e 84 39
e 87 39
e 88 39
e 95 39
e 96 39
e 99 39
e 42 40
e 43 40
e 45 40
e 48 40
e 52 40
e 54 40
e 56 40
e 61 40
e 62 40
e 67 40
e 70 40
e 75 40
e 79 40
e 87 40
e 90 40
e 93 40
e 100 40
e 42 41
e 43 41
e 44 41
e 46 41
e 52 41
e 54 41
e 55 41
e 57 41
e 59 41
e 62 41
e 64 41
e 66 41
e 68 41
e 72 41
e 74 41
e 81 41
e 82 41
e 83 41
e 84 41
e 86 41
e 87 41
e 88 41
e 91 41
e 93 41
e 94 41
e 98 41
e 99 41
e 100 41
e 50 42
e 53 42
e 54 42
e 55 42
e 56 42
e 58 42
e 59 42
e 62 42
e 67 42
e 74 42
e 76 42
e 77 42
e 78 42
e 79 42
e 82 42
e 89 42
e 93 42
e 94 42
e 98 42
e 99 42
e 52 43
e 59 43
e 60 43
e 61 43
e 62 43
e 69 43
e 70 43
e 75 43
e 76 43
e 77 43
e 78 43
e 80 43
e 84 43
e 88 43
e 89 43
e 93 43
e 94 43
e 95 43
e 99 43
e 52 44
e 56 44
e 78 44
e 81 44
e 86 44
e 87 44
e 93 44
e 95 44
e 96 44
e 100 44
e 47 45
e 57 45
e 60 45
e 73 45
e 82 45
e 86 45
e 90 45
e 91 45
e 96 45
e 97 45
e 98 45
e 51 46
e 52 46
e 54 46
e 55 46
e 56 46
e 61 46
e 62 46
e 66 46
e 68 46
e 76 46
e 79 46
e 81 46
e 86 46
e 91 46
e 94 46
e 96 46
e 99 46
e 100 46
e 48 47
e 49 47
e 58 47
e 59 47
e 65 47
e 69 47
e 70 47
e 71 47
e 72 47
e 74 47
e 78 47
e 83 47
e 92 47
e 93 47
e 99 47
e 55 48
e 57 48
e 59 48
e 60 48
e 75 48
e 76 48
e 80 48
e 82 48
e 85 48
e 86 48
e 88 48
e 92 48
e 94 48
e 99 48
e 51 49
e 59 49
e 64 49
e 65 49
e 76 49
e 80 49
e 81 49
e 87 49
e 88 49
e 91 49
e 92 49
e 93 49
e 94 49
e 96 49
e 97 49
e 100 49
e 54 50
e 56 50
e 57 50
e 62 50
e 63 50
e 70 50
e 71 50
e 73 50
e 77 50
e 82 50
e 98 50
e 52 51
e 59 51
e 61 51
e 64 51
e 78 51
e 79 51
e 82 51
e 89 51
e 90 51
e 100 51
e 55 52
e 56 52
e 58 52
e 64 52
e 65 52
e 67 52
e 69 52
e 71 52
e 72 52
e 73 52
e 87 52
e 92 52
e 94 52
e 96 52
e 98 52
e 54 53
e 56 53
e 59 53
e 76 53
e 77 53
e 79 53
e 83 53
e 86 53
e 88 53
e 89 53
e 90 53
e 94 53
e 95 53
e 96 53
e 98 53
e 55 54
e 56 54
e 60 54
e 61 54
e 62 54
e 66 54
e 68 54
e 78 54
e 81 54
e 87 54
e 90 54
e 92 54
e 93 54
e 94 54
e 96 54
e 99 54
e 56 55
e 59 55
e 66 55
e 72 55
e 74 55
e 75 55
e 77 55
e 84 55
e 85 55
e 86 55
e 88 55
e 96 55
e 100 55
e 58 56
e 65 56
e 71 56
e 75 56
e 79 56
e 80 56
e 82 56
e 86 56
e 88 56
e 96 56
e 98 56
e 100 56
e 67 57
e 70 57
e 71 57
e 75 57
e 79 57
e 80 57
e 99 57
e 59 58
e 61 58
e 63 58
e 64 58
e 78 58
e 79 58
e 85 58
e 88 58
e 89 58
e 90 58
e 91 58
e 92 58
e 95 58
e 96 58
e 60 59
e 68 59
e 73 59
e 78 59
e 83 59
e 84 59
e 91 59
e 92 59
e 94 59
e 99 59
e 61 60
e 64 60
e 67 60
e 69 60
e 70 60
e 73 60
e 74 60
e 75 60
e 80 60
e 85 60
e 88 60
e 90 60
e 97 60
e 62 61
e 63 61
e 66 61
e 71 61
e 73 61
e 74 61
e 83 61
e 84 61
e 90 61
e 94 61
e 95 61
e 98 61
e 65 62
e 74 62
e 77 62
e 85 62
e 88 62
e 92 62
e 95 62
e 97 62
e 68 63
e 73 63
e 76 63
e 79 63
e 81 63
e 85 63
e 92 63
e 93 63
e 99 63
e 68 64
e 73 64
e 79 64
e 81 64
e 83 64
e 84 64
e 86 64
e 93 64
e 94 64
e 95 64
e 99 64
e 72 65
e 78 65
e 89 65
e 94 65
e 95 65
e 67 66
e 72 66
e 75 66
e 78 66
e 82 66
e 87 66
e 88 66
e 89 66
e 90 66
e 93 66
e 94 66
e 95 66
e 68 67
e 69 67
e 70 67
e 75 67
e 81 67
e 82 67
e 89 67
e 91 67
e 93 67
e 94 67
e 97 67
e 100 67
e 74 68
e 75 68
e 78 68
e 80 68
e 84 68
e 86 68
e 89 68
e 93 68
e 97 68
e 71 69
e 73 69
e 76 69
e 77 69
e 78 69
e 84 69
e 85 69
e 92 69
e 96 69
e 71 70
e 72 70
e 73 70
e 74 70
e 76 70
e 77 70
e 79 70
e 80 70
e 82 70
e 85 70
e 86 70
e 92 70
e 93 70
e 94 70
e 96 70
e 97 70
e 98 70
e 75 71
e 82 71
e 83 71
e 87 71
e 90 71
e 94 71
e 95 71
e 99 71
e 74 72
e 76 72
e 77 72
e 87 72
e 90 72
e 96 72
e 98 72
e 99 72
e 79 73
e 80 73
e 83 73
e 87 73
e 89 73
e 95 73
e 78 74
e 85 74
e 86 74
e 91 74
e 96 74
e 79 75
e 80 75
e 85 75
e 86 75
e 87 75
e 92 75
e 97 75
e 100 75
e 81 76
e 82 76
e 83 76
e 84 76
e 88 76
e 89 76
e 90 76
e 92 76
e 94 76
e 96 76
e 98 76
e 99 76
e 100 76
e 79 77
e 80 77
e 89 77
e 92 77
e 94 77
e 96 77
e 99 77
e 79 78
e 86 78
e 89 78
e 92 78
e 96 78
e 99 78
e 80 79
e 81 79
e 83 79
e 85 79
e 89 79
e 90 79
e 93 79
e 97 79
e 82 80
e 83 80
e 84 80
e 85 80
e 87 80
e 88 80
e 92 80
e 100 80
e 83 81
e 90 81
e 91 81
e 95 81
e 96 81
e 99 81
e 85 82
e 88 82
e 91 82
e 93 82
e 99 82
e 100 82
e 85 83
e 88 83
e 90 83
e 94 83
e 99 83
e 85 84
e 92 84
e 97 84
e 99 84
e 90 85
e 93 85
e 95 85
e 99 85
e 87 86
e 97 86
e 92 87
e 100 87
e 95 88
e 97 88
e 98 88
e 92 89
e 93 89
e 95 90
e 96 90
e 97 90
e 94 91
e 95 91
e 96 91
e 98 91
e 99 91
e 100 91
e 93 92
e 94 92
e 95 92
e 99 92
e 95 93
e 97 93
e 98 93
e 99 93
e 100 94
e 96 95
e 99 96
e 100 98
e 100 99
